%nprocshared=20
%mem=10GB
#p opt=(calcfc,ts,noeigentest) freq scrf=(smd,solvent=pentylethanoate)
bp86 def2svp empiricaldispersion=gd3bj iop(1/8=4)

title

0 1
 C                  1.54719500   -2.57036600   -1.38536300
 H                  2.29644200   -3.15336000   -1.92973600
 C                  0.21825900   -2.78849600   -1.15764100
 H                 -0.44065200   -3.61187000   -1.44904500
 N                  1.86201400   -1.36386300   -0.75818300
 N                 -0.24621500   -1.70484600   -0.40512000
 C                  3.19746100   -0.83583500   -0.71750000
 C                  4.14730900   -1.47065300    0.11813400
 C                  3.52426800    0.29282000   -1.50190300
 C                  5.44136000   -0.92085600    0.18041300
 C                  4.82969500    0.81178100   -1.39466200
 C                  5.80173000    0.22369600   -0.56049900
 H                  6.18548000   -1.39285400    0.84338000
 H                  5.09341500    1.70265400   -1.98818300
 C                 -1.62850900   -1.61368500   -0.01645400
 C                 -1.98013900   -1.71453800    1.34962300
 C                 -2.60180100   -1.50807100   -1.03604900
 C                 -3.34831300   -1.74110800    1.67131100
 C                 -3.95858900   -1.55936400   -0.66174900
 C                 -4.35234100   -1.68465600    0.68186400
 H                 -3.63815600   -1.81157600    2.73295000
 H                 -4.72771500   -1.46309200   -1.44475600
 C                  2.50287100    0.92578400   -2.40707500
 H                  1.63036900    1.27542000   -1.81732100
 H                  2.93169500    1.78376100   -2.95979000
 H                  2.10661900    0.19458900   -3.14384800
 C                  3.77841600   -2.67705600    0.94507000
 H                  2.76487000   -2.57733200    1.38282800
 H                  3.77103300   -3.60580000    0.33438500
 H                  4.50314000   -2.82812900    1.76891100
 C                  7.20069400    0.78521100   -0.47604400
 H                  7.56509900    0.81268200    0.57192000
 H                  7.91765900    0.15637600   -1.04877300
 H                  7.25578900    1.81208700   -0.88924300
 C                 -0.92138000   -1.77996900    2.41677800
 H                 -0.29883300   -0.86075000    2.37398100
 H                 -1.37075600   -1.86681100    3.42492400
 H                 -0.23501100   -2.64024600    2.26201500
 C                 -2.21065200   -1.32182000   -2.48139000
 H                 -1.91716300   -2.27823800   -2.96546200
 H                 -3.05699700   -0.90519600   -3.06054100
 H                 -1.34749000   -0.63215600   -2.57462100
 C                 -5.81045100   -1.75196300    1.06456600
 H                 -6.46547500   -1.41531000    0.23708200
 H                 -6.10655800   -2.79244600    1.32557100
 H                 -6.02617200   -1.12506700    1.95415400
 C                  0.76112800   -0.79976100   -0.13756100
 Ni                 0.76233500    0.83502600    0.80937400
 C                 -5.40997000    1.60170800    0.26631500
 C                 -4.04567200    1.57703100    0.59099900
 C                 -3.05875900    1.65976100   -0.41627800
 C                 -3.47544600    1.75589700   -1.76351000
 C                 -4.83902000    1.73905000   -2.09355100
 C                 -5.81389100    1.66635400   -1.07932700
 H                 -6.16640800    1.55203800    1.06595700
 H                 -3.70174500    1.48830000    1.63192200
 H                 -2.72528300    1.83321300   -2.56460100
 H                 -5.14686600    1.79563500   -3.15035200
 H                 -6.88471500    1.66635300   -1.33921800
 C                 -1.61641700    1.65414500    0.00419800
 O                 -1.35588000    1.40599900    1.24158400
 C                 -0.57237500    1.93324000   -0.89662900
 H                  0.29800400    2.46765600   -0.46764100
 H                 -0.69605600    2.01168000   -1.98675900
 C                  1.75332985    2.09428603    1.80435115
 H                  1.90056554    2.69168920    0.88699795
 H                  1.00786739    2.56246587    2.47804522
 C                  2.99426172    1.58311114    2.47133230
 H                  3.06940144    1.87803088    3.54439540
 C                  4.32610213    1.74742868    1.78036910
 H                  5.14944316    1.14442085    2.20633450
 C                  4.57726851    2.54488760    0.72629503
 H                  3.79505146    3.16389977    0.25731022
 H                  5.58780538    2.60161756    0.28997824
 H                  2.89989591    0.42011672    2.67394819

